80   3160
173
96 132 71 164 118 65 86 49 166 64 70 97 102 107 98 131 149 55 77 83 77 50 103 166 134 36 133 93 113 75 91 139 93 140 73 159 131 100 82 125 107 99 91 35 84 114 57 69 69 116 53 163 161 124 142 115 125 102 92 77 53 96 76 169 58 112 132 107 97 119 56 157 107 101 162 101 55 34 119 1 2 192
1 3 80
1 4 268
1 5 253
1 6 243
1 7 145
1 8 11
1 9 167
1 10 96
1 11 58
1 12 166
1 13 139
1 14 269
1 15 163
1 16 122
1 17 290
1 18 214
1 19 90
1 20 171
1 21 36
1 22 79
1 23 193
1 24 166
1 25 161
1 26 157
1 27 284
1 28 96
1 29 19
1 30 225
1 31 268
1 32 167
1 33 80
1 34 251
1 35 124
1 36 289
1 37 248
1 38 276
1 39 216
1 40 62
1 41 170
1 42 293
1 43 36
1 44 150
1 45 66
1 46 264
1 47 285
1 48 234
1 49 166
1 50 83
1 51 112
1 52 232
1 53 263
1 54 67
1 55 22
1 56 137
1 57 96
1 58 116
1 59 256
1 60 105
1 61 163
1 62 122
1 63 163
1 64 164
1 65 205
1 66 95
1 67 23
1 68 258
1 69 12
1 70 172
1 71 20
1 72 78
1 73 70
1 74 130
1 75 79
1 76 131
1 77 228
1 78 25
1 79 185
1 80 155
2 3 127
2 4 71
2 5 255
2 6 166
2 7 71
2 8 122
2 9 285
2 10 275
2 11 205
2 12 18
2 13 92
2 14 51
2 15 219
2 16 71
2 17 12
2 18 289
2 19 73
2 20 168
2 21 81
2 22 260
2 23 128
2 24 235
2 25 114
2 26 170
2 27 202
2 28 273
2 29 153
2 30 235
2 31 207
2 32 127
2 33 244
2 34 50
2 35 29
2 36 284
2 37 63
2 38 80
2 39 155
2 40 71
2 41 282
2 42 279
2 43 124
2 44 37
2 45 243
2 46 254
2 47 169
2 48 237
2 49 173
2 50 217
2 51 56
2 52 189
2 53 83
2 54 270
2 55 23
2 56 44
2 57 204
2 58 227
2 59 29
2 60 235
2 61 42
2 62 248
2 63 174
2 64 281
2 65 102
2 66 148
2 67 173
2 68 35
2 69 181
2 70 152
2 71 41
2 72 47
2 73 112
2 74 60
2 75 155
2 76 60
2 77 209
2 78 287
2 79 156
2 80 227
3 4 182
3 5 73
3 6 65
3 7 278
3 8 117
3 9 251
3 10 120
3 11 222
3 12 72
3 13 18
3 14 75
3 15 237
3 16 291
3 17 60
3 18 263
3 19 38
3 20 58
3 21 214
3 22 147
3 23 202
3 24 14
3 25 271
3 26 165
3 27 106
3 28 282
3 29 209
3 30 138
3 31 278
3 32 111
3 33 44
3 34 281
3 35 296
3 36 218
3 37 192
3 38 94
3 39 31
3 40 15
3 41 214
3 42 51
3 43 280
3 44 141
3 45 207
3 46 89
3 47 300
3 48 236
3 49 102
3 50 244
3 51 289
3 52 72
3 53 100
3 54 244
3 55 67
3 56 65
3 57 131
3 58 135
3 59 218
3 60 22
3 61 161
3 62 98
3 63 16
3 64 58
3 65 34
3 66 56
3 67 276
3 68 60
3 69 78
3 70 157
3 71 255
3 72 43
3 73 279
3 74 69
3 75 202
3 76 115
3 77 33
3 78 236
3 79 228
3 80 90
4 5 238
4 6 171
4 7 106
4 8 194
4 9 68
4 10 69
4 11 189
4 12 248
4 13 81
4 14 134
4 15 150
4 16 269
4 17 214
4 18 297
4 19 168
4 20 262
4 21 68
4 22 221
4 23 106
4 24 255
4 25 56
4 26 38
4 27 183
4 28 27
4 29 118
4 30 190
4 31 97
4 32 295
4 33 49
4 34 172
4 35 263
4 36 143
4 37 114
4 38 191
4 39 99
4 40 174
4 41 15
4 42 284
4 43 195
4 44 123
4 45 66
4 46 160
4 47 29
4 48 16
4 49 124
4 50 33
4 51 203
4 52 126
4 53 298
4 54 194
4 55 104
4 56 214
4 57 254
4 58 80
4 59 45
4 60 226
4 61 28
4 62 68
4 63 216
4 64 100
4 65 214
4 66 218
4 67 263
4 68 269
4 69 140
4 70 187
4 71 61
4 72 75
4 73 282
4 74 186
4 75 42
4 76 191
4 77 16
4 78 136
4 79 152
4 80 244
5 6 187
5 7 284
5 8 166
5 9 176
5 10 38
5 11 182
5 12 264
5 13 165
5 14 120
5 15 42
5 16 180
5 17 298
5 18 231
5 19 251
5 20 146
5 21 241
5 22 242
5 23 275
5 24 128
5 25 189
5 26 86
5 27 221
5 28 272
5 29 206
5 30 124
5 31 257
5 32 179
5 33 281
5 34 84
5 35 156
5 36 270
5 37 155
5 38 56
5 39 252
5 40 253
5 41 107
5 42 84
5 43 212
5 44 67
5 45 10
5 46 57
5 47 152
5 48 266
5 49 16
5 50 194
5 51 139
5 52 161
5 53 279
5 54 292
5 55 217
5 56 75
5 57 231
5 58 166
5 59 144
5 60 176
5 61 103
5 62 278
5 63 279
5 64 55
5 65 30
5 66 273
5 67 157
5 68 246
5 69 275
5 70 167
5 71 129
5 72 290
5 73 154
5 74 212
5 75 153
5 76 157
5 77 12
5 78 247
5 79 96
5 80 178
6 7 236
6 8 111
6 9 68
6 10 125
6 11 222
6 12 228
6 13 235
6 14 101
6 15 267
6 16 184
6 17 298
6 18 77
6 19 30
6 20 120
6 21 177
6 22 51
6 23 153
6 24 160
6 25 229
6 26 167
6 27 159
6 28 22
6 29 29
6 30 279
6 31 223
6 32 33
6 33 128
6 34 221
6 35 84
6 36 138
6 37 168
6 38 88
6 39 132
6 40 262
6 41 188
6 42 277
6 43 116
6 44 103
6 45 111
6 46 194
6 47 82
6 48 89
6 49 212
6 50 296
6 51 169
6 52 95
6 53 45
6 54 265
6 55 213
6 56 176
6 57 275
6 58 289
6 59 223
6 60 56
6 61 139
6 62 167
6 63 160
6 64 209
6 65 75
6 66 73
6 67 157
6 68 65
6 69 106
6 70 171
6 71 179
6 72 131
6 73 204
6 74 31
6 75 101
6 76 228
6 77 89
6 78 154
6 79 281
6 80 211
7 8 126
7 9 94
7 10 91
7 11 99
7 12 99
7 13 293
7 14 53
7 15 110
7 16 34
7 17 18
7 18 268
7 19 281
7 20 39
7 21 234
7 22 146
7 23 129
7 24 35
7 25 191
7 26 118
7 27 234
7 28 226
7 29 281
7 30 114
7 31 195
7 32 48
7 33 44
7 34 254
7 35 27
7 36 45
7 37 150
7 38 183
7 39 205
7 40 48
7 41 252
7 42 274
7 43 263
7 44 227
7 45 289
7 46 233
7 47 203
7 48 226
7 49 100
7 50 253
7 51 59
7 52 20
7 53 85
7 54 250
7 55 69
7 56 179
7 57 126
7 58 15
7 59 279
7 60 151
7 61 126
7 62 96
7 63 185
7 64 58
7 65 36
7 66 246
7 67 196
7 68 130
7 69 270
7 70 35
7 71 96
7 72 45
7 73 227
7 74 56
7 75 231
7 76 279
7 77 11
7 78 160
7 79 123
7 80 298
8 9 122
8 10 141
8 11 128
8 12 128
8 13 134
8 14 89
8 15 103
8 16 155
8 17 64
8 18 53
8 19 243
8 20 33
8 21 288
8 22 174
8 23 42
8 24 265
8 25 99
8 26 247
8 27 78
8 28 286
8 29 248
8 30 15
8 31 254
8 32 230
8 33 58
8 34 101
8 35 14
8 36 275
8 37 276
8 38 35
8 39 295
8 40 147
8 41 263
8 42 238
8 43 288
8 44 90
8 45 133
8 46 27
8 47 111
8 48 167
8 49 176
8 50 266
8 51 101
8 52 196
8 53 272
8 54 116
8 55 13
8 56 73
8 57 208
8 58 164
8 59 125
8 60 269
8 61 117
8 62 52
8 63 230
8 64 51
8 65 234
8 66 227
8 67 129
8 68 91
8 69 288
8 70 198
8 71 20
8 72 271
8 73 45
8 74 287
8 75 68
8 76 237
8 77 97
8 78 260
8 79 48
8 80 173
9 10 226
9 11 232
9 12 37
9 13 300
9 14 20
9 15 173
9 16 159
9 17 63
9 18 172
9 19 39
9 20 35
9 21 106
9 22 119
9 23 151
9 24 264
9 25 29
9 26 129
9 27 261
9 28 192
9 29 239
9 30 141
9 31 200
9 32 114
9 33 178
9 34 78
9 35 75
9 36 243
9 37 90
9 38 64
9 39 152
9 40 251
9 41 230
9 42 34
9 43 92
9 44 62
9 45 249
9 46 168
9 47 234
9 48 238
9 49 243
9 50 180
9 51 292
9 52 295
9 53 175
9 54 180
9 55 296
9 56 293
9 57 25
9 58 228
9 59 117
9 60 233
9 61 47
9 62 292
9 63 151
9 64 179
9 65 221
9 66 156
9 67 131
9 68 39
9 69 86
9 70 56
9 71 190
9 72 169
9 73 152
9 74 142
9 75 171
9 76 147
9 77 123
9 78 70
9 79 201
9 80 26
10 11 177
10 12 26
10 13 185
10 14 152
10 15 205
10 16 72
10 17 300
10 18 40
10 19 86
10 20 224
10 21 186
10 22 158
10 23 156
10 24 31
10 25 80
10 26 268
10 27 159
10 28 61
10 29 128
10 30 202
10 31 159
10 32 70
10 33 140
10 34 128
10 35 118
10 36 10
10 37 156
10 38 206
10 39 60
10 40 167
10 41 264
10 42 50
10 43 50
10 44 256
10 45 78
10 46 33
10 47 14
10 48 137
10 49 58
10 50 289
10 51 263
10 52 214
10 53 227
10 54 89
10 55 113
10 56 256
10 57 122
10 58 180
10 59 292
10 60 188
10 61 191
10 62 20
10 63 261
10 64 201
10 65 249
10 66 27
10 67 89
10 68 279
10 69 265
10 70 220
10 71 107
10 72 193
10 73 152
10 74 137
10 75 144
10 76 74
10 77 98
10 78 49
10 79 37
10 80 286
11 12 265
11 13 81
11 14 204
11 15 239
11 16 98
11 17 117
11 18 129
11 19 140
11 20 123
11 21 82
11 22 104
11 23 11
11 24 98
11 25 16
11 26 162
11 27 291
11 28 81
11 29 31
11 30 54
11 31 30
11 32 157
11 33 43
11 34 263
11 35 64
11 36 97
11 37 214
11 38 267
11 39 173
11 40 228
11 41 263
11 42 234
11 43 257
11 44 117
11 45 195
11 46 75
11 47 50
11 48 102
11 49 129
11 50 95
11 51 219
11 52 63
11 53 64
11 54 202
11 55 62
11 56 78
11 57 48
11 58 76
11 59 199
11 60 259
11 61 173
11 62 17
11 63 199
11 64 279
11 65 126
11 66 84
11 67 258
11 68 198
11 69 297
11 70 286
11 71 274
11 72 48
11 73 61
11 74 51
11 75 111
11 76 145
11 77 132
11 78 138
11 79 89
11 80 182
12 13 178
12 14 263
12 15 118
12 16 188
12 17 222
12 18 119
12 19 205
12 20 109
12 21 40
12 22 59
12 23 121
12 24 23
12 25 57
12 26 299
12 27 299
12 28 25
12 29 23
12 30 17
12 31 256
12 32 59
12 33 33
12 34 19
12 35 133
12 36 91
12 37 181
12 38 164
12 39 57
12 40 129
12 41 147
12 42 213
12 43 178
12 44 224
12 45 230
12 46 136
12 47 20
12 48 87
12 49 255
12 50 205
12 51 49
12 52 23
12 53 93
12 54 151
12 55 263
12 56 67
12 57 237
12 58 23
12 59 103
12 60 253
12 61 257
12 62 234
12 63 78
12 64 41
12 65 16
12 66 84
12 67 113
12 68 282
12 69 114
12 70 202
12 71 12
12 72 24
12 73 64
12 74 90
12 75 73
12 76 263
12 77 241
12 78 81
12 79 249
12 80 78
13 14 27
13 15 163
13 16 10
13 17 202
13 18 93
13 19 200
13 20 150
13 21 180
13 22 85
13 23 278
13 24 235
13 25 103
13 26 124
13 27 186
13 28 210
13 29 76
13 30 38
13 31 118
13 32 260
13 33 23
13 34 52
13 35 113
13 36 52
13 37 268
13 38 191
13 39 284
13 40 64
13 41 185
13 42 248
13 43 132
13 44 188
13 45 247
13 46 171
13 47 120
13 48 226
13 49 245
13 50 102
13 51 248
13 52 214
13 53 82
13 54 123
13 55 281
13 56 127
13 57 47
13 58 89
13 59 104
13 60 18
13 61 196
13 62 111
13 63 198
13 64 174
13 65 90
13 66 40
13 67 52
13 68 232
13 69 130
13 70 133
13 71 232
13 72 158
13 73 61
13 74 201
13 75 237
13 76 264
13 77 142
13 78 24
13 79 64
13 80 177
14 15 231
14 16 258
14 17 141
14 18 107
14 19 230
14 20 289
14 21 88
14 22 144
14 23 166
14 24 156
14 25 296
14 26 76
14 27 173
14 28 246
14 29 196
14 30 162
14 31 171
14 32 211
14 33 30
14 34 205
14 35 268
14 36 78
14 37 79
14 38 224
14 39 290
14 40 168
14 41 145
14 42 216
14 43 50
14 44 228
14 45 142
14 46 80
14 47 175
14 48 216
14 49 219
14 50 58
14 51 87
14 52 210
14 53 73
14 54 178
14 55 59
14 56 289
14 57 244
14 58 208
14 59 294
14 60 113
14 61 217
14 62 53
14 63 153
14 64 58
14 65 22
14 66 293
14 67 69
14 68 214
14 69 192
14 70 174
14 71 283
14 72 201
14 73 221
14 74 121
14 75 14
14 76 138
14 77 123
14 78 167
14 79 242
14 80 295
15 16 112
15 17 121
15 18 20
15 19 99
15 20 83
15 21 167
15 22 213
15 23 53
15 24 150
15 25 197
15 26 56
15 27 68
15 28 151
15 29 201
15 30 103
15 31 129
15 32 48
15 33 280
15 34 93
15 35 140
15 36 112
15 37 223
15 38 282
15 39 148
15 40 286
15 41 64
15 42 125
15 43 300
15 44 245
15 45 246
15 46 105
15 47 127
15 48 224
15 49 253
15 50 249
15 51 152
15 52 51
15 53 196
15 54 101
15 55 236
15 56 191
15 57 32
15 58 251
15 59 156
15 60 28
15 61 67
15 62 70
15 63 162
15 64 42
15 65 85
15 66 173
15 67 97
15 68 38
15 69 162
15 70 153
15 71 69
15 72 107
15 73 150
15 74 217
15 75 295
15 76 122
15 77 229
15 78 105
15 79 65
15 80 197
16 17 38
16 18 13
16 19 261
16 20 223
16 21 222
16 22 184
16 23 298
16 24 142
16 25 223
16 26 246
16 27 121
16 28 276
16 29 54
16 30 46
16 31 267
16 32 225
16 33 151
16 34 284
16 35 176
16 36 219
16 37 127
16 38 118
16 39 119
16 40 84
16 41 179
16 42 191
16 43 17
16 44 275
16 45 252
16 46 135
16 47 198
16 48 225
16 49 254
16 50 43
16 51 238
16 52 73
16 53 90
16 54 223
16 55 26
16 56 224
16 57 76
16 58 32
16 59 265
16 60 260
16 61 174
16 62 27
16 63 63
16 64 246
16 65 27
16 66 133
16 67 18
16 68 105
16 69 18
16 70 41
16 71 188
16 72 249
16 73 93
16 74 132
16 75 99
16 76 250
16 77 29
16 78 88
16 79 64
16 80 77
17 18 45
17 19 180
17 20 36
17 21 250
17 22 209
17 23 32
17 24 237
17 25 45
17 26 260
17 27 25
17 28 299
17 29 73
17 30 195
17 31 19
17 32 224
17 33 133
17 34 289
17 35 90
17 36 188
17 37 214
17 38 16
17 39 195
17 40 119
17 41 87
17 42 249
17 43 247
17 44 150
17 45 73
17 46 150
17 47 95
17 48 234
17 49 150
17 50 44
17 51 145
17 52 231
17 53 225
17 54 276
17 55 47
17 56 210
17 57 13
17 58 258
17 59 60
17 60 58
17 61 136
17 62 106
17 63 298
17 64 69
17 65 48
17 66 237
17 67 144
17 68 155
17 69 128
17 70 126
17 71 282
17 72 163
17 73 10
17 74 115
17 75 192
17 76 10
17 77 134
17 78 251
17 79 280
17 80 245
18 19 165
18 20 274
18 21 153
18 22 300
18 23 16
18 24 95
18 25 153
18 26 133
18 27 233
18 28 89
18 29 210
18 30 58
18 31 94
18 32 224
18 33 123
18 34 247
18 35 138
18 36 243
18 37 88
18 38 74
18 39 84
18 40 17
18 41 244
18 42 39
18 43 169
18 44 179
18 45 129
18 46 105
18 47 91
18 48 258
18 49 252
18 50 15
18 51 238
18 52 256
18 53 86
18 54 22
18 55 19
18 56 87
18 57 209
18 58 36
18 59 86
18 60 265
18 61 298
18 62 168
18 63 106
18 64 120
18 65 83
18 66 228
18 67 76
18 68 24
18 69 147
18 70 38
18 71 192
18 72 89
18 73 180
18 74 81
18 75 286
18 76 147
18 77 248
18 78 241
18 79 154
18 80 10
19 20 142
19 21 51
19 22 278
19 23 145
19 24 196
19 25 194
19 26 17
19 27 251
19 28 276
19 29 168
19 30 223
19 31 253
19 32 96
19 33 16
19 34 33
19 35 153
19 36 116
19 37 260
19 38 112
19 39 265
19 40 81
19 41 193
19 42 162
19 43 277
19 44 299
19 45 260
19 46 120
19 47 188
19 48 22
19 49 90
19 50 236
19 51 77
19 52 91
19 53 49
19 54 252
19 55 177
19 56 105
19 57 19
19 58 48
19 59 35
19 60 33
19 61 274
19 62 125
19 63 269
19 64 77
19 65 59
19 66 69
19 67 238
19 68 229
19 69 258
19 70 170
19 71 116
19 72 151
19 73 131
19 74 244
19 75 21
19 76 194
19 77 35
19 78 269
19 79 278
19 80 289
20 21 21
20 22 277
20 23 71
20 24 291
20 25 215
20 26 187
20 27 141
20 28 147
20 29 240
20 30 95
20 31 169
20 32 64
20 33 251
20 34 139
20 35 54
20 36 150
20 37 200
20 38 235
20 39 143
20 40 272
20 41 14
20 42 247
20 43 135
20 44 86
20 45 149
20 46 221
20 47 294
20 48 295
20 49 279
20 50 213
20 51 292
20 52 156
20 53 16
20 54 159
20 55 248
20 56 219
20 57 81
20 58 97
20 59 295
20 60 222
20 61 199
20 62 77
20 63 206
20 64 77
20 65 160
20 66 258
20 67 123
20 68 130
20 69 122
20 70 110
20 71 65
20 72 298
20 73 130
20 74 161
20 75 134
20 76 83
20 77 248
20 78 284
20 79 99
20 80 233
21 22 38
21 23 62
21 24 254
21 25 203
21 26 168
21 27 201
21 28 172
21 29 186
21 30 55
21 31 288
21 32 177
21 33 112
21 34 221
21 35 298
21 36 181
21 37 280
21 38 58
21 39 110
21 40 232
21 41 216
21 42 18
21 43 289
21 44 257
21 45 161
21 46 151
21 47 101
21 48 153
21 49 44
21 50 244
21 51 50
21 52 291
21 53 155
21 54 33
21 55 203
21 56 121
21 57 155
21 58 97
21 59 11
21 60 157
21 61 192
21 62 246
21 63 180
21 64 98
21 65 110
21 66 234
21 67 229
21 68 88
21 69 154
21 70 164
21 71 141
21 72 144
21 73 147
21 74 272
21 75 222
21 76 149
21 77 229
21 78 216
21 79 14
21 80 50
22 23 24
22 24 214
22 25 183
22 26 25
22 27 71
22 28 106
22 29 144
22 30 241
22 31 80
22 32 222
22 33 288
22 34 131
22 35 62
22 36 56
22 37 47
22 38 31
22 39 197
22 40 99
22 41 23
22 42 243
22 43 265
22 44 243
22 45 116
22 46 202
22 47 45
22 48 299
22 49 173
22 50 29
22 51 275
22 52 62
22 53 15
22 54 76
22 55 191
22 56 71
22 57 189
22 58 97
22 59 133
22 60 174
22 61 111
22 62 239
22 63 132
22 64 205
22 65 209
22 66 146
22 67 262
22 68 18
22 69 54
22 70 274
22 71 268
22 72 55
22 73 14
22 74 130
22 75 260
22 76 293
22 77 237
22 78 176
22 79 90
22 80 291
23 24 105
23 25 74
23 26 246
23 27 267
23 28 167
23 29 34
23 30 169
23 31 208
23 32 24
23 33 176
23 34 222
23 35 226
23 36 70
23 37 166
23 38 158
23 39 111
23 40 45
23 41 225
23 42 267
23 43 248
23 44 22
23 45 91
23 46 218
23 47 299
23 48 51
23 49 267
23 50 46
23 51 251
23 52 232
23 53 150
23 54 120
23 55 204
23 56 196
23 57 138
23 58 256
23 59 47
23 60 298
23 61 122
23 62 264
23 63 283
23 64 268
23 65 172
23 66 158
23 67 103
23 68 143
23 69 188
23 70 147
23 71 187
23 72 240
23 73 157
23 74 283
23 75 91
23 76 119
23 77 24
23 78 268
23 79 87
23 80 174
24 25 24
24 26 205
24 27 174
24 28 109
24 29 81
24 30 74
24 31 157
24 32 270
24 33 168
24 34 121
24 35 174
24 36 227
24 37 153
24 38 17
24 39 107
24 40 124
24 41 116
24 42 243
24 43 61
24 44 238
24 45 225
24 46 29
24 47 282
24 48 219
24 49 277
24 50 72
24 51 265
24 52 23
24 53 191
24 54 45
24 55 254
24 56 204
24 57 172
24 58 107
24 59 50
24 60 62
24 61 40
24 62 24
24 63 268
24 64 51
24 65 284
24 66 152
24 67 220
24 68 160
24 69 89
24 70 239
24 71 123
24 72 280
24 73 110
24 74 237
24 75 68
24 76 278
24 77 102
24 78 205
24 79 221
24 80 88
25 26 171
25 27 136
25 28 57
25 29 191
25 30 18
25 31 275
25 32 269
25 33 10
25 34 179
25 35 11
25 36 113
25 37 57
25 38 83
25 39 78
25 40 243
25 41 120
25 42 117
25 43 119
25 44 185
25 45 260
25 46 152
25 47 103
25 48 284
25 49 215
25 50 192
25 51 185
25 52 172
25 53 297
25 54 18
25 55 43
25 56 298
25 57 63
25 58 284
25 59 154
25 60 284
25 61 138
25 62 223
25 63 121
25 64 95
25 65 125
25 66 246
25 67 89
25 68 63
25 69 142
25 70 131
25 71 170
25 72 14
25 73 80
25 74 44
25 75 101
25 76 169
25 77 87
25 78 78
25 79 290
25 80 201
26 27 188
26 28 279
26 29 167
26 30 243
26 31 102
26 32 252
26 33 134
26 34 209
26 35 272
26 36 208
26 37 65
26 38 105
26 39 273
26 40 41
26 41 27
26 42 128
26 43 185
26 44 230
26 45 258
26 46 140
26 47 45
26 48 95
26 49 143
26 50 113
26 51 149
26 52 250
26 53 117
26 54 140
26 55 214
26 56 298
26 57 14
26 58 128
26 59 177
26 60 184
26 61 135
26 62 287
26 63 143
26 64 155
26 65 61
26 66 92
26 67 266
26 68 58
26 69 75
26 70 289
26 71 218
26 72 285
26 73 292
26 74 216
26 75 233
26 76 232
26 77 296
26 78 71
26 79 150
26 80 86
27 28 210
27 29 39
27 30 99
27 31 251
27 32 205
27 33 167
27 34 287
27 35 205
27 36 251
27 37 67
27 38 16
27 39 118
27 40 54
27 41 207
27 42 293
27 43 267
27 44 137
27 45 296
27 46 48
27 47 140
27 48 172
27 49 188
27 50 23
27 51 180
27 52 299
27 53 67
27 54 108
27 55 118
27 56 220
27 57 196
27 58 231
27 59 240
27 60 268
27 61 69
27 62 21
27 63 39
27 64 70
27 65 43
27 66 60
27 67 34
27 68 294
27 69 68
27 70 46
27 71 195
27 72 172
27 73 207
27 74 180
27 75 144
27 76 278
27 77 160
27 78 249
27 79 102
27 80 78
28 29 198
28 30 59
28 31 238
28 32 188
28 33 211
28 34 271
28 35 103
28 36 131
28 37 216
28 38 35
28 39 119
28 40 39
28 41 197
28 42 284
28 43 105
28 44 169
28 45 112
28 46 72
28 47 204
28 48 230
28 49 161
28 50 241
28 51 229
28 52 250
28 53 221
28 54 144
28 55 249
28 56 281
28 57 275
28 58 82
28 59 98
28 60 22
28 61 152
28 62 56
28 63 91
28 64 43
28 65 282
28 66 69
28 67 227
28 68 122
28 69 236
28 70 103
28 71 113
28 72 34
28 73 10
28 74 209
28 75 223
28 76 90
28 77 10
28 78 223
28 79 96
28 80 167
29 30 93
29 31 189
29 32 149
29 33 150
29 34 169
29 35 280
29 36 212
29 37 238
29 38 47
29 39 43
29 40 56
29 41 106
29 42 242
29 43 246
29 44 153
29 45 66
29 46 46
29 47 186
29 48 63
29 49 40
29 50 15
29 51 205
29 52 148
29 53 252
29 54 143
29 55 112
29 56 121
29 57 131
29 58 90
29 59 48
29 60 248
29 61 153
29 62 38
29 63 178
29 64 123
29 65 99
29 66 171
29 67 125
29 68 74
29 69 288
29 70 57
29 71 272
29 72 155
29 73 154
29 74 196
29 75 291
29 76 74
29 77 92
29 78 211
29 79 16
29 80 298
30 31 275
30 32 166
30 33 114
30 34 153
30 35 160
30 36 235
30 37 267
30 38 234
30 39 240
30 40 226
30 41 51
30 42 39
30 43 229
30 44 56
30 45 17
30 46 148
30 47 33
30 48 98
30 49 45
30 50 68
30 51 234
30 52 81
30 53 246
30 54 90
30 55 219
30 56 27
30 57 270
30 58 174
30 59 38
30 60 265
30 61 241
30 62 111
30 63 203
30 64 17
30 65 105
30 66 21
30 67 206
30 68 287
30 69 17
30 70 226
30 71 136
30 72 258
30 73 185
30 74 105
30 75 66
30 76 262
30 77 27
30 78 231
30 79 62
30 80 161
31 32 130
31 33 168
31 34 111
31 35 34
31 36 221
31 37 279
31 38 143
31 39 37
31 40 105
31 41 289
31 42 180
31 43 195
31 44 62
31 45 26
31 46 39
31 47 187
31 48 190
31 49 66
31 50 98
31 51 125
31 52 72
31 53 168
31 54 26
31 55 225
31 56 23
31 57 300
31 58 99
31 59 36
31 60 211
31 61 239
31 62 131
31 63 220
31 64 240
31 65 222
31 66 250
31 67 109
31 68 235
31 69 41
31 70 44
31 71 125
31 72 254
31 73 139
31 74 34
31 75 99
31 76 170
31 77 66
31 78 25
31 79 175
31 80 217
32 33 165
32 34 117
32 35 186
32 36 127
32 37 218
32 38 297
32 39 255
32 40 124
32 41 190
32 42 139
32 43 140
32 44 79
32 45 187
32 46 27
32 47 242
32 48 169
32 49 225
32 50 289
32 51 190
32 52 100
32 53 190
32 54 124
32 55 169
32 56 234
32 57 205
32 58 130
32 59 36
32 60 103
32 61 151
32 62 184
32 63 149
32 64 273
32 65 245
32 66 245
32 67 194
32 68 249
32 69 43
32 70 260
32 71 197
32 72 31
32 73 263
32 74 46
32 75 273
32 76 204
32 77 166
32 78 108
32 79 243
32 80 52
33 34 179
33 35 159
33 36 30
33 37 228
33 38 57
33 39 196
33 40 169
33 41 151
33 42 294
33 43 52
33 44 97
33 45 162
33 46 163
33 47 199
33 48 126
33 49 246
33 50 25
33 51 96
33 52 118
33 53 50
33 54 192
33 55 142
33 56 89
33 57 57
33 58 171
33 59 269
33 60 184
33 61 216
33 62 298
33 63 148
33 64 231
33 65 264
33 66 164
33 67 248
33 68 183
33 69 184
33 70 297
33 71 255
33 72 287
33 73 120
33 74 117
33 75 188
33 76 288
33 77 244
33 78 60
33 79 173
33 80 238
34 35 54
34 36 124
34 37 181
34 38 189
34 39 99
34 40 265
34 41 294
34 42 220
34 43 271
34 44 251
34 45 104
34 46 12
34 47 238
34 48 173
34 49 248
34 50 118
34 51 285
34 52 12
34 53 129
34 54 199
34 55 158
34 56 215
34 57 108
34 58 143
34 59 294
34 60 138
34 61 84
34 62 115
34 63 278
34 64 78
34 65 59
34 66 275
34 67 126
34 68 187
34 69 287
34 70 188
34 71 282
34 72 211
34 73 296
34 74 70
34 75 225
34 76 96
34 77 249
34 78 230
34 79 86
34 80 273
35 36 90
35 37 290
35 38 216
35 39 274
35 40 147
35 41 128
35 42 58
35 43 58
35 44 249
35 45 103
35 46 116
35 47 88
35 48 157
35 49 106
35 50 271
35 51 262
35 52 142
35 53 193
35 54 172
35 55 48
35 56 218
35 57 127
35 58 150
35 59 273
35 60 160
35 61 271
35 62 170
35 63 129
35 64 275
35 65 148
35 66 261
35 67 207
35 68 106
35 69 20
35 70 224
35 71 131
35 72 251
35 73 147
35 74 167
35 75 218
35 76 84
35 77 105
35 78 10
35 79 263
35 80 167
36 37 64
36 38 65
36 39 198
36 40 103
36 41 145
36 42 230
36 43 26
36 44 272
36 45 20
36 46 167
36 47 105
36 48 265
36 49 131
36 50 47
36 51 69
36 52 94
36 53 40
36 54 201
36 55 261
36 56 33
36 57 207
36 58 73
36 59 256
36 60 161
36 61 74
36 62 131
36 63 93
36 64 209
36 65 274
36 66 203
36 67 101
36 68 116
36 69 247
36 70 65
36 71 217
36 72 13
36 73 164
36 74 129
36 75 36
36 76 200
36 77 17
36 78 30
36 79 173
36 80 92
37 38 138
37 39 134
37 40 195
37 41 284
37 42 152
37 43 39
37 44 243
37 45 211
37 46 297
37 47 103
37 48 148
37 49 286
37 50 152
37 51 33
37 52 285
37 53 279
37 54 131
37 55 74
37 56 294
37 57 142
37 58 101
37 59 13
37 60 192
37 61 254
37 62 114
37 63 225
37 64 33
37 65 250
37 66 192
37 67 282
37 68 284
37 69 233
37 70 46
37 71 13
37 72 99
37 73 47
37 74 28
37 75 192
37 76 99
37 77 178
37 78 125
37 79 109
37 80 82
38 39 165
38 40 161
38 41 201
38 42 18
38 43 299
38 44 138
38 45 197
38 46 67
38 47 86
38 48 41
38 49 250
38 50 296
38 51 174
38 52 257
38 53 213
38 54 37
38 55 73
38 56 162
38 57 143
38 58 272
38 59 31
38 60 127
38 61 122
38 62 108
38 63 244
38 64 62
38 65 157
38 66 259
38 67 276
38 68 219
38 69 194
38 70 128
38 71 220
38 72 122
38 73 74
38 74 92
38 75 297
38 76 238
38 77 28
38 78 73
38 79 50
38 80 29
39 40 299
39 41 295
39 42 173
39 43 108
39 44 17
39 45 162
39 46 291
39 47 192
39 48 218
39 49 139
39 50 200
39 51 223
39 52 257
39 53 203
39 54 210
39 55 282
39 56 65
39 57 124
39 58 85
39 59 208
39 60 37
39 61 237
39 62 14
39 63 271
39 64 101
39 65 134
39 66 274
39 67 233
39 68 108
39 69 159
39 70 103
39 71 114
39 72 197
39 73 295
39 74 11
39 75 48
39 76 77
39 77 140
39 78 25
39 79 204
39 80 44
40 41 107
40 42 214
40 43 113
40 44 156
40 45 251
40 46 195
40 47 110
40 48 168
40 49 139
40 50 36
40 51 157
40 52 290
40 53 257
40 54 10
40 55 11
40 56 277
40 57 195
40 58 269
40 59 264
40 60 65
40 61 79
40 62 154
40 63 159
40 64 67
40 65 187
40 66 86
40 67 151
40 68 255
40 69 39
40 70 170
40 71 112
40 72 41
40 73 288
40 74 299
40 75 249
40 76 153
40 77 269
40 78 145
40 79 74
40 80 100
41 42 33
41 43 268
41 44 134
41 45 44
41 46 267
41 47 72
41 48 216
41 49 120
41 50 296
41 51 136
41 52 43
41 53 44
41 54 156
41 55 58
41 56 153
41 57 77
41 58 220
41 59 74
41 60 212
41 61 251
41 62 251
41 63 71
41 64 14
41 65 253
41 66 290
41 67 270
41 68 100
41 69 268
41 70 49
41 71 114
41 72 13
41 73 58
41 74 259
41 75 85
41 76 300
41 77 201
41 78 18
41 79 188
41 80 98
42 43 176
42 44 286
42 45 120
42 46 221
42 47 163
42 48 68
42 49 31
42 50 292
42 51 298
42 52 263
42 53 161
42 54 61
42 55 220
42 56 250
42 57 235
42 58 201
42 59 130
42 60 252
42 61 91
42 62 107
42 63 283
42 64 13
42 65 17
42 66 24
42 67 22
42 68 175
42 69 189
42 70 297
42 71 144
42 72 30
42 73 196
42 74 58
42 75 279
42 76 131
42 77 227
42 78 125
42 79 120
42 80 149
43 44 270
43 45 235
43 46 242
43 47 188
43 48 144
43 49 94
43 50 201
43 51 269
43 52 16
43 53 70
43 54 15
43 55 163
43 56 82
43 57 215
43 58 123
43 59 100
43 60 125
43 61 137
43 62 168
43 63 112
43 64 45
43 65 283
43 66 262
43 67 293
43 68 113
43 69 175
43 70 184
43 71 102
43 72 81
43 73 255
43 74 241
43 75 158
43 76 269
43 77 176
43 78 236
43 79 283
43 80 139
44 45 92
44 46 27
44 47 257
44 48 79
44 49 138
44 50 192
44 51 190
44 52 66
44 53 63
44 54 266
44 55 87
44 56 176
44 57 16
44 58 48
44 59 268
44 60 218
44 61 292
44 62 277
44 63 48
44 64 35
44 65 143
44 66 241
44 67 49
44 68 135
44 69 17
44 70 200
44 71 115
44 72 26
44 73 205
44 74 171
44 75 103
44 76 174
44 77 228
44 78 12
44 79 159
44 80 249
45 46 166
45 47 91
45 48 288
45 49 270
45 50 202
45 51 154
45 52 21
45 53 126
45 54 276
45 55 156
45 56 189
45 57 65
45 58 240
45 59 59
45 60 234
45 61 126
45 62 208
45 63 171
45 64 191
45 65 122
45 66 168
45 67 217
45 68 108
45 69 43
45 70 121
45 71 137
45 72 116
45 73 252
45 74 224
45 75 255
45 76 268
45 77 169
45 78 173
45 79 24
45 80 264
46 47 80
46 48 293
46 49 207
46 50 242
46 51 103
46 52 138
46 53 85
46 54 121
46 55 32
46 56 188
46 57 232
46 58 112
46 59 58
46 60 222
46 61 241
46 62 188
46 63 185
46 64 229
46 65 73
46 66 52
46 67 127
46 68 81
46 69 108
46 70 184
46 71 53
46 72 197
46 73 272
46 74 297
46 75 251
46 76 150
46 77 42
46 78 226
46 79 128
46 80 97
47 48 99
47 49 150
47 50 265
47 51 13
47 52 148
47 53 75
47 54 157
47 55 65
47 56 138
47 57 20
47 58 32
47 59 135
47 60 101
47 61 233
47 62 26
47 63 199
47 64 19
47 65 259
47 66 180
47 67 97
47 68 248
47 69 257
47 70 216
47 71 176
47 72 140
47 73 127
47 74 161
47 75 42
47 76 115
47 77 158
47 78 86
47 79 148
47 80 67
48 49 300
48 50 137
48 51 81
48 52 270
48 53 73
48 54 20
48 55 12
48 56 184
48 57 109
48 58 202
48 59 210
48 60 107
48 61 103
48 62 231
48 63 106
48 64 264
48 65 114
48 66 127
48 67 20
48 68 296
48 69 231
48 70 78
48 71 92
48 72 274
48 73 297
48 74 159
48 75 206
48 76 124
48 77 158
48 78 260
48 79 280
48 80 255
49 50 112
49 51 235
49 52 138
49 53 211
49 54 14
49 55 15
49 56 191
49 57 88
49 58 81
49 59 241
49 60 92
49 61 220
49 62 278
49 63 17
49 64 127
49 65 219
49 66 177
49 67 137
49 68 154
49 69 33
49 70 236
49 71 244
49 72 222
49 73 32
49 74 35
49 75 84
49 76 117
49 77 284
49 78 77
49 79 48
49 80 146
50 51 195
50 52 113
50 53 98
50 54 228
50 55 26
50 56 117
50 57 137
50 58 57
50 59 295
50 60 34
50 61 156
50 62 245
50 63 17
50 64 267
50 65 267
50 66 233
50 67 212
50 68 285
50 69 214
50 70 210
50 71 286
50 72 274
50 73 73
50 74 298
50 75 89
50 76 98
50 77 51
50 78 276
50 79 204
50 80 115
51 52 128
51 53 150
51 54 240
51 55 278
51 56 17
51 57 132
51 58 208
51 59 289
51 60 104
51 61 44
51 62 26
51 63 232
51 64 83
51 65 206
51 66 114
51 67 148
51 68 123
51 69 291
51 70 92
51 71 163
51 72 75
51 73 72
51 74 288
51 75 231
51 76 299
51 77 234
51 78 55
51 79 221
51 80 246
52 53 141
52 54 136
52 55 31
52 56 27
52 57 52
52 58 153
52 59 244
52 60 112
52 61 100
52 62 78
52 63 74
52 64 256
52 65 44
52 66 271
52 67 243
52 68 195
52 69 26
52 70 92
52 71 166
52 72 108
52 73 292
52 74 56
52 75 293
52 76 287
52 77 148
52 78 123
52 79 27
52 80 68
53 54 142
53 55 86
53 56 140
53 57 241
53 58 180
53 59 20
53 60 36
53 61 128
53 62 29
53 63 31
53 64 198
53 65 47
53 66 272
53 67 79
53 68 54
53 69 200
53 70 262
53 71 144
53 72 85
53 73 89
53 74 186
53 75 78
53 76 245
53 77 17
53 78 252
53 79 209
53 80 102
54 55 113
54 56 27
54 57 100
54 58 157
54 59 74
54 60 223
54 61 205
54 62 188
54 63 12
54 64 93
54 65 203
54 66 107
54 67 250
54 68 58
54 69 134
54 70 14
54 71 165
54 72 35
54 73 205
54 74 242
54 75 279
54 76 134
54 77 289
54 78 43
54 79 210
54 80 267
55 56 243
55 57 189
55 58 197
55 59 218
55 60 218
55 61 49
55 62 73
55 63 185
55 64 201
55 65 234
55 66 53
55 67 265
55 68 12
55 69 123
55 70 221
55 71 51
55 72 152
55 73 25
55 74 162
55 75 208
55 76 102
55 77 229
55 78 140
55 79 57
55 80 204
56 57 150
56 58 153
56 59 120
56 60 123
56 61 226
56 62 278
56 63 88
56 64 96
56 65 93
56 66 19
56 67 166
56 68 222
56 69 101
56 70 30
56 71 65
56 72 210
56 73 287
56 74 279
56 75 283
56 76 57
56 77 179
56 78 129
56 79 171
56 80 142
57 58 114
57 59 273
57 60 173
57 61 147
57 62 87
57 63 142
57 64 109
57 65 187
57 66 201
57 67 47
57 68 63
57 69 99
57 70 184
57 71 187
57 72 108
57 73 155
57 74 286
57 75 43
57 76 210
57 77 229
57 78 151
57 79 134
57 80 170
58 59 116
58 60 246
58 61 18
58 62 244
58 63 201
58 64 231
58 65 91
58 66 223
58 67 46
58 68 296
58 69 246
58 70 111
58 71 164
58 72 99
58 73 213
58 74 278
58 75 34
58 76 69
58 77 168
58 78 39
58 79 29
58 80 163
59 60 166
59 61 57
59 62 204
59 63 275
59 64 277
59 65 54
59 66 158
59 67 121
59 68 167
59 69 133
59 70 160
59 71 251
59 72 180
59 73 198
59 74 300
59 75 58
59 76 176
59 77 119
59 78 284
59 79 19
59 80 14
60 61 205
60 62 109
60 63 215
60 64 240
60 65 279
60 66 293
60 67 155
60 68 296
60 69 111
60 70 236
60 71 125
60 72 70
60 73 83
60 74 262
60 75 164
60 76 93
60 77 92
60 78 175
60 79 45
60 80 111
61 62 99
61 63 205
61 64 211
61 65 174
61 66 180
61 67 219
61 68 220
61 69 112
61 70 212
61 71 252
61 72 67
61 73 173
61 74 174
61 75 25
61 76 103
61 77 63
61 78 130
61 79 262
61 80 283
62 63 205
62 64 94
62 65 222
62 66 31
62 67 86
62 68 148
62 69 154
62 70 258
62 71 200
62 72 41
62 73 94
62 74 248
62 75 253
62 76 237
62 77 215
62 78 150
62 79 278
62 80 227
63 64 95
63 65 237
63 66 32
63 67 83
63 68 132
63 69 241
63 70 30
63 71 227
63 72 264
63 73 112
63 74 136
63 75 277
63 76 168
63 77 176
63 78 109
63 79 118
63 80 79
64 65 36
64 66 144
64 67 282
64 68 222
64 69 129
64 70 292
64 71 101
64 72 63
64 73 237
64 74 51
64 75 110
64 76 156
64 77 227
64 78 138
64 79 39
64 80 199
65 66 213
65 67 208
65 68 107
65 69 288
65 70 264
65 71 90
65 72 118
65 73 74
65 74 215
65 75 287
65 76 246
65 77 253
65 78 294
65 79 143
65 80 270
66 67 48
66 68 86
66 69 222
66 70 37
66 71 121
66 72 57
66 73 161
66 74 218
66 75 283
66 76 252
66 77 240
66 78 226
66 79 197
66 80 97
67 68 10
67 69 122
67 70 272
67 71 104
67 72 200
67 73 115
67 74 128
67 75 28
67 76 201
67 77 193
67 78 194
67 79 242
67 80 36
68 69 34
68 70 180
68 71 244
68 72 139
68 73 263
68 74 81
68 75 50
68 76 242
68 77 241
68 78 176
68 79 191
68 80 254
69 70 223
69 71 41
69 72 164
69 73 42
69 74 98
69 75 170
69 76 95
69 77 184
69 78 275
69 79 247
69 80 118
70 71 248
70 72 33
70 73 52
70 74 135
70 75 271
70 76 161
70 77 55
70 78 132
70 79 85
70 80 226
71 72 136
71 73 164
71 74 107
71 75 245
71 76 150
71 77 143
71 78 246
71 79 27
71 80 39
72 73 15
72 74 55
72 75 282
72 76 75
72 77 265
72 78 22
72 79 13
72 80 173
73 74 223
73 75 159
73 76 202
73 77 212
73 78 276
73 79 260
73 80 275
74 75 268
74 76 300
74 77 205
74 78 218
74 79 279
74 80 131
75 76 150
75 77 213
75 78 37
75 79 16
75 80 234
76 77 158
76 78 61
76 79 86
76 80 29
77 78 114
77 79 58
77 80 106
78 79 245
78 80 184
79 80 293
